%%% static parameters %%%
timespan = 1;
Clients_N = [4000];
Demand_W = [15];
Lt0 = [4];
Lt1 = [4];
SS_ = [0.85];
DS_D = [20];
K = [200];
MA = [500];
HC = [0.05];
%%% dynamic parameters %%%
lost_ratio_sales_ret_th = 0.0004286561219198528;
lost_ratio_sales_ret_w = 33;
lost_ratio_sales_dis_th = 0.0007695793996980505;
lost_ratio_sales_dis_w = 13;
lost_ratio_sales_fac_th = 0.00011906700017573236;
lost_ratio_sales_fac_w = 78;
stock_customer_MA_mean_relative_th = 0.7173148888674813;
stock_customer_MA_mean_relative_w = 93;
stock_distributor_MA_mean_relative_th = 0.931957813216822;
stock_distributor_MA_mean_relative_w = 78;
stock_retailer_MA_mean_relative_th = 0.3983701646854255;
stock_retailer_MA_mean_relative_w = 38;
stock_factory_MA_mean_relative_th = 0.4623407511902001;
stock_factory_MA_mean_relative_w = 93;
